
Gurobi 11.0.2 (win64) logging started Sat Nov 23 21:17:54 2024

Set parameter LogFile to value ".\Experiments\Verification_16_eps0.0001_focus\Logs\vit_12_1_6_12_i4_r1_c4.log"
Set parameter TimeLimit to value 43200
Gurobi Optimizer version 11.0.2 build v11.0.2rc0 (win64 - Windows 10.0 (19045.2))

CPU model: Intel(R) Core(TM) i7-10750H CPU @ 2.60GHz, instruction set [SSE2|AVX|AVX2]
Thread count: 6 physical cores, 12 logical processors, using up to 12 threads

Optimize a model with 3933 rows, 4269 columns and 14966 nonzeros
Model fingerprint: 0x854a695f
Model has 1150 quadratic constraints
Model has 210 general constraints
Variable types: 4119 continuous, 150 integer (150 binary)
Coefficient statistics:
  Matrix range     [8e-04, 2e+02]
  QMatrix range    [1e+00, 1e+00]
  QLMatrix range   [1e+00, 1e+00]
  Objective range  [1e+00, 1e+00]
  Bounds range     [1e-289, 7e+02]
  RHS range        [1e-04, 5e+02]
  QRHS range       [1e-06, 1e-06]
Presolve removed 3287 rows and 2606 columns
Presolve time: 0.03s
Presolved: 4819 rows, 1664 columns, 16412 nonzeros
Presolved model has 928 bilinear constraint(s)
Presolved model has 119 nonlinear constraint(s)

Solving non-convex MINLP

Variable types: 1648 continuous, 16 integer (16 binary)

Root relaxation: objective 8.530778e+01, 2040 iterations, 0.06 seconds (0.09 work units)

    Nodes    |    Current Node    |     Objective Bounds      |     Work
 Expl Unexpl |  Obj  Depth IntInf | Incumbent    BestBd   Gap | It/Node Time

     0     0   85.30778    0  771          -   85.30778      -     -    0s
     0     0   85.30778    0  772          -   85.30778      -     -    0s
     0     0   85.23011    0  742          -   85.23011      -     -    0s
     0     0   85.16092    0  745          -   85.16092      -     -    0s
     0     0   85.16032    0  745          -   85.16032      -     -    0s
     0     0   85.13513    0  741          -   85.13513      -     -    0s
     0     0   85.13513    0  741          -   85.13513      -     -    0s
     0     0   85.12432    0  741          -   85.12432      -     -    0s
     0     0   85.11394    0  740          -   85.11394      -     -    0s
     0     0   58.67996    0  716          -   58.67996      -     -    4s
     0     2   58.67996    0  716          -   58.67996      -     -   10s
  2188   452  -15.67795   49  704          -  -15.63676      -  80.3   15s
H 2559   513                     -15.7107271  -15.63676  0.47%  80.8   16s
  2566   518  -15.67902   44    2  -15.71073  -15.63676  0.47%  80.5   20s
  3260   435 infeasible   28       -15.71073  -15.63676  0.47%  88.7   25s
  5898   647  -15.64653   41  499  -15.71073  -15.63676  0.47%  92.3   30s
  7947  1293     cutoff   71       -15.71073  -15.63676  0.47%  84.0   35s
  9458  1817  -15.63676   63  454  -15.71073  -15.63676  0.47%  80.4   40s
 12540  2577  -15.63676   67  449  -15.71073  -15.63676  0.47%  72.0   45s
 15405  2655  -15.63676   80  443  -15.71073  -15.63676  0.47%  67.3   50s
 21153    66     cutoff   49       -15.71073  -15.63676  0.47%  59.3   55s
 25662  2024  -15.70960   73  477  -15.71073  -15.70875  0.01%  54.7   62s
 27255  3312  -15.71061  103  377  -15.71073  -15.70878  0.01%  53.2   66s
 30485  4268     cutoff  103       -15.71073  -15.70879  0.01%  50.5   70s
 36170  6668  -15.71070  100  392  -15.71073  -15.70891  0.01%  46.8   77s
 39031  7787  -15.71025   85  427  -15.71073  -15.70906  0.01%  45.5   80s
